&CONTROL
    calculation = "scf"
    max_seconds =  8.64000e+04
    pseudo_dir  = "~/Documents/TA/PWDFT.jl/pseudopotentials/scan_upf/"
    outdir      = "./input_pw/Al/11/"
/

&SYSTEM
    a           = 6.56 
    ecutwfc     =  6.00000e+01
    ibrav       = 2
    nat         = 1
    nspin       = 1
    ntyp        = 1
    occupations = 'smearing'
    degauss     = 0.1
/

&ELECTRONS
    conv_thr         =  1.00000e-06
    diagonalization  = "davidson"
    electron_maxstep = 300
    mixing_beta      =  1.0000e-02
    mixing_mode      = "local-TF"
    startingpot      = "atomic"
    startingwfc      = "atomic+random"
/

&IONS
/

&CELL
/

K_POINTS {automatic}
  10 10 10 0 0 0

ATOMIC_SPECIES
Al     26.981539  Al.SCAN.UPF2

ATOMIC_POSITIONS {alat}
Al      0.000000   0.000000   0.000000

