&CONTROL
    calculation = "vc-relax"
    max_seconds =  8.64000e+04
    pseudo_dir  = "~/Documents/PWDFT.jl/pseudopotentials/scan_upf/"
/

&SYSTEM
    celldm(1)   =  10.2631
    ecutwfc     =  5.00000e+01
    ibrav       = 2
    nat         = 2
    nspin       = 1
    ntyp        = 2
/

&ELECTRONS
    conv_thr         =  1.00000e-06
    diagonalization  = "davidson"
    electron_maxstep = 300
    mixing_beta      =  1.0000e-02
    mixing_mode      = "local-TF"
    startingpot      = "atomic"
    startingwfc      = "atomic+random"
/

&IONS
/

&CELL
/

K_POINTS {automatic}
  10 10 10 0 0 0

ATOMIC_SPECIES
Si     28.0855   Si.SCAN.UPF
C      12.011    C.SCAN.UPF

ATOMIC_POSITIONS {alat}
Si      0.000000   0.000000   0.000000 1 1 1
C       0.250000   0.250000   0.250000 1 1 1
