&CONTROL
    calculation = "relax"
    max_seconds =  8.64000e+04
    pseudo_dir  = "~/Documents/TA/PWDFT.jl/pseudopotentials/scan_upf/"
/

&SYSTEM
    celldm(1)   =  16.000
    ecutwfc     =  5.0000e+01
    ibrav       = 1
    nat         = 2
    nspin       = 1
    ntyp        = 1
/

&ELECTRONS
    conv_thr         =  1.00000e-06
    diagonalization  = "davidson"
    electron_maxstep = 300
    mixing_beta      =  1.0000e-02
    mixing_mode      = "local-TF"
    startingpot      = "atomic"
    startingwfc      = "atomic+random"
/

&IONS
/

&CELL
/

K_POINTS {automatic}
  10 10 10 0 0 0

ATOMIC_SPECIES
H     1.008     H.SCAN.UPF2

ATOMIC_POSITIONS {alat}
H      0.500000   0.500000   0.500000
H      0.500000   0.500000   0.550000
